src/inputs/sm2.dat
data;

set J := 1 2 3 4 5 6 7 8 9 10;
set I := 1 2 3 4 5 6 7 8;

param p := 
    1 93
    2 23
    3 128
    4 28
    5 52
    6 139
    7 13
    8 89
    9 92
    10 80;

param r := 
    1 86
    2 105
    3 16
    4 94
    5 150
    6 189
    7 162
    8 137
    9 163
    10 82;

param T := 189;
param R := 198;
param M := 1000000;

end;